Ag2 I2
1.0
   2.2797046428634919   -3.9485642676902302    0.0000000000000000
   2.2797046428634919    3.9485642676902302    0.0000000000000000
   0.0000000000000000    0.0000000000000000    7.4431080261777804
Ag I
2 2
direct
   0.3333333333333333    0.6666666666666666    0.0022477602839732 Ag
   0.6666666666666667    0.3333333333333333    0.5022477602839732 Ag
   0.3333333333333333    0.6666666666666666    0.3776522397160258 I
   0.6666666666666667    0.3333333333333333    0.8776522397160258 I
